c Random generated cnf formula, satisfiable: false
p cnf 10 50
-9 -6 -7 0
-8 -1 7 0
-8 -9 -4 0
5 -2 8 0
-2 10 -8 0
6 -8 -5 0
-2 -3 4 0
-8 10 3 0
8 -4 9 0
-2 9 -1 0
-8 2 -6 0
6 2 8 0
-7 -9 -6 0
5 -7 10 0
-5 1 -3 0
6 10 3 0
2 10 -5 0
4 -9 -1 0
5 4 1 0
6 -4 2 0
9 7 -5 0
5 -8 -9 0
-8 -2 -10 0
-2 -5 6 0
-1 -9 -5 0
5 9 4 0
-10 -1 -3 0
-10 -8 -7 0
8 7 2 0
-1 3 2 0
1 -8 -5 0
-7 -8 4 0
4 7 2 0
-10 3 2 0
-2 5 3 0
6 -5 -9 0
4 3 -6 0
8 6 -10 0
9 -10 -8 0
-5 -7 1 0
10 -3 4 0
10 -6 -5 0
-6 3 1 0
5 9 -3 0
-4 -8 2 0
10 3 -1 0
-2 5 8 0
-8 -4 -1 0
9 6 -1 0
9 -5 4 0
